NAME : pr152.111234.tour
COMMENT : Cost = 37107_111234
COMMENT : Found by LKH [Keld Helsgaun] Thu Nov 16 14:48:51 2017
TYPE : TOUR
DIMENSION : 154
TOUR_SECTION
1
2
15
3
31
30
29
14
4
38
28
27
13
5
26
25
24
12
6
39
23
22
11
7
20
21
19
10
8
9
17
18
40
42
58
59
64
63
62
61
60
41
84
85
108
109
110
86
107
106
105
83
87
82
65
57
43
37
34
36
154
71
70
69
54
45
80
89
100
113
114
121
132
131
147
148
149
130
129
122
123
128
127
151
150
152
126
125
124
116
115
96
91
78
92
95
94
93
77
74
76
50
49
48
75
73
51
47
153
16
33
32
44
55
56
68
67
66
81
101
102
103
88
112
111
104
117
140
139
141
142
143
138
137
118
119
136
135
144
145
146
134
133
120
97
98
99
90
79
72
53
52
46
35
-1
EOF
